letting n =  10
letting blocks =  [[1, 2], [1, 4], [1, 5], [1, 7], [1, 9], [2, 1], [2, 4], [2, 5], [2, 7], [2, 8], [2, 10], [3, 1], [3, 2], [3, 4], [3, 6], [3, 8], [3, 10], [4, 1], [4, 2], [4, 3], [4, 5], [4, 6], [5, 1], [5, 2], [5, 3], [5, 4], [5, 6], [5, 9], [6, 2], [6, 5], [6, 6], [6, 7], [6, 8], [6, 10], [7, 1], [7, 2], [7, 3], [7, 6], [7, 9], [7, 10], [8, 1], [8, 3], [8, 7], [8, 8], [8, 9], [8, 10], [9, 3], [9, 4], [9, 5], [9, 7], [9, 8], [9, 9], [10, 3], [10, 5], [10, 7], [10, 8], [10, 9], [10, 10]]
